NAME: eilD76_25
COMMENT: 699.34
VEHICLE: 7
TIME: 73.2303
DIMENSION: 76
CAPACITY: 220
DELIVERY_SECTION
0 0 0
1 1 11
2 1 2.2
3 1 2.2
4 1 2.2
5 1 0.4
6 2 22
7 2 2.2
8 2 1.8
9 3 11
10 4 22
11 4 2.2
12 4 2.2
13 4 2.2
14 4 1.4
15 5 11
16 5 2.2
17 5 2.2
18 5 2.2
19 5 2.2
20 5 1.2
21 6 11
22 6 2.2
23 6 2.2
24 6 2.2
25 6 1.4
26 7 11
27 7 2.2
28 7 1.8
29 8 11
30 8 2.2
31 8 2.2
32 8 0.6
33 9 22
34 9 2.2
35 9 2.2
36 9 2.2
37 9 0.4
38 10 22
39 10 2.2
40 10 1.8
41 11 22
42 11 11
43 11 2.2
44 11 1.8
45 12 11
46 12 2.2
47 12 2.2
48 12 0.6
49 13 11
50 13 1
51 14 22
52 14 2.2
53 14 2.2
54 14 2.2
55 14 2.2
56 14 0.2
57 15 2.2
58 15 2.2
59 15 2.2
60 15 1.4
61 16 11
62 16 2.2
63 16 2.2
64 16 2.2
65 16 1.4
66 17 11
67 17 2.2
68 17 2.2
69 17 2.2
70 17 2.2
71 17 0.2
72 18 11
73 18 2
74 19 11
75 19 2.2
76 19 1.8
77 20 22
78 21 22
79 21 2.2
80 21 2.2
81 21 1.6
82 22 11
83 22 1
84 23 2.2
85 23 2.2
86 23 1.6
87 24 22
88 24 2.2
89 24 2.2
90 24 0.6
91 25 11
92 25 2.2
93 25 0.8
94 26 11
95 26 2.2
96 26 2.2
97 26 2.2
98 26 0.4
99 27 11
100 27 2.2
101 27 2.2
102 27 1.6
103 28 22
104 28 2.2
105 28 2.2
106 28 2.2
107 28 0.4
108 29 11
109 29 2
110 30 22
111 31 22
112 31 2.2
113 31 0.8
114 32 22
115 32 2.2
116 32 2.2
117 32 1.6
118 33 22
119 33 2.2
120 33 2.2
121 33 0.6
122 34 11
123 34 2.2
124 34 2.2
125 34 2.2
126 34 1.4
127 35 2.2
128 35 2.2
129 35 2.2
130 35 2.2
131 35 1.2
132 36 11
133 36 1
134 37 11
135 37 2.2
136 37 0.8
137 38 22
138 38 2
139 39 11
140 39 2.2
141 39 2.2
142 39 0.6
143 40 22
144 40 11
145 41 11
146 41 2.2
147 41 1.8
148 42 11
149 43 11
150 43 2.2
151 43 2.2
152 43 2.2
153 43 0.4
154 44 11
155 44 2.2
156 44 2.2
157 44 1.6
158 45 11
159 45 2.2
160 45 2.2
161 45 2.2
162 45 2.2
163 45 1.2
164 46 22
165 46 2.2
166 46 2.2
167 46 0.6
168 47 11
169 47 2.2
170 47 2.2
171 47 2.2
172 47 1.4
173 48 11
174 48 2.2
175 48 2.2
176 48 2.2
177 48 2.2
178 48 0.2
179 49 2.2
180 49 2.2
181 49 0.6
182 50 22
183 51 11
184 51 1
185 52 11
186 52 2.2
187 52 2.2
188 52 2.2
189 52 1.4
190 53 22
191 54 11
192 54 2.2
193 54 2.2
194 54 0.6
195 55 2.2
196 55 2.2
197 55 2.2
198 55 0.4
199 56 22
200 56 2.2
201 56 1.8
202 57 11
203 57 2.2
204 57 0.8
205 58 11
206 58 2.2
207 58 2.2
208 58 2.2
209 58 2.2
210 58 1.2
211 59 22
212 59 2
213 60 11
214 60 2
215 61 11
216 61 2.2
217 61 1.8
218 62 11
219 62 2.2
220 62 2.2
221 62 2.2
222 62 0.4
223 63 11
224 64 22
225 64 2.2
226 64 2.2
227 64 1.6
228 65 2.2
229 65 2.2
230 65 2.2
231 65 2.2
232 65 0.2
233 66 22
234 66 11
235 66 2.2
236 66 1.8
237 67 22
238 67 2.2
239 67 2.2
240 67 2.2
241 67 1.4
242 68 2.2
243 68 2.2
244 68 2.2
245 68 2.2
246 68 1.2
247 69 2.2
248 69 2.2
249 69 2.2
250 69 1.4
251 70 11
252 71 2.2
253 71 0.8
254 72 1
255 73 2.2
256 73 2.2
257 73 1.6
258 74 2.2
259 74 2.2
260 74 2.2
261 74 2.2
262 74 1.2
263 75 11
264 75 2.2
265 75 2.2
266 75 2.2
267 75 2.2
268 75 0.2
PICKUP_SECTION
NODE_SECTION
40 40

22 22

36 26

21 45

45 35

55 20

33 34

50 50

55 45

26 59

40 66

55 65

35 51

62 35

62 57

62 24

21 36

33 44

 9 56

62 48

66 14

44 13

26 13

11 28

 7 43

17 64

41 46

55 34

35 16

52 26

43 26

31 76

22 53

26 29

50 40

55 50

54 10

60 15

47 66

30 60

30 50

12 17

15 14

16 19

21 48

50 30

51 42

50 15

48 21

12 38

15 56

29 39

54 38

55 57

67 41

10 70

 6 25

65 27

40 60

70 64

64  4

36  6

30 20

20 30

15  5

50 70

57 72

45 42

38 33

50  4

66  8

59  5

35 60

27 24

40 20

40 37
DISTANCE_SECTION
DEPOT_SECTION
0
EOF